\ LP format - for model browsing. Use MPS format to capture full model detail.
Minimize
 
Subject To
 R0: x[0]_0 = 0
 R1: x[1]_0 = 0
 R2: - x[0]_0 - x[1]_0 + x[0]_1 = 0
 R3: - x[1]_0 + x[1]_1 - u[0]_0 = 0
 R4: - x[0]_1 - x[1]_1 + x[0]_2 = 0
 R5: - x[1]_1 + x[1]_2 - u[0]_1 = 0
 R6: - x[0]_2 - x[1]_2 + x[0]_3 = 0
 R7: - x[1]_2 + x[1]_3 - u[0]_2 = 0
 R8: - x[0]_3 - x[1]_3 + x[0]_4 = 0
 R9: - x[1]_3 + x[1]_4 - u[0]_3 = 0
 R10: - x[0]_4 - x[1]_4 + x[0]_5 = 0
 R11: - x[1]_4 + x[1]_5 - u[0]_4 = 0
 R12: - x[0]_5 - x[1]_5 + x[0]_6 = 0
 R13: - x[1]_5 + x[1]_6 - u[0]_5 = 0
 R14: - x[0]_6 - x[1]_6 + x[0]_7 = 0
 R15: - x[1]_6 + x[1]_7 - u[0]_6 = 0
 R16: - x[0]_7 - x[1]_7 + x[0]_8 = 0
 R17: - x[1]_7 + x[1]_8 - u[0]_7 = 0
 R18: - x[0]_8 - x[1]_8 + x[0]_9 = 0
 R19: - x[1]_8 + x[1]_9 - u[0]_8 = 0
 R20: - x[0]_9 - x[1]_9 + x[0]_10 = 0
 R21: - x[1]_9 + x[1]_10 - u[0]_9 = 0
 R22: - x[0]_10 - x[1]_10 + x[0]_11 = 0
 R23: - x[1]_10 + x[1]_11 - u[0]_10 = 0
 R24: - x[0]_11 - x[1]_11 + x[0]_12 = 0
 R25: - x[1]_11 + x[1]_12 - u[0]_11 = 0
 R26: - x[0]_12 - x[1]_12 + x[0]_13 = 0
 R27: - x[1]_12 + x[1]_13 - u[0]_12 = 0
 R28: - x[0]_13 - x[1]_13 + x[0]_14 = 0
 R29: - x[1]_13 + x[1]_14 - u[0]_13 = 0
 R30: - x[0]_14 - x[1]_14 + x[0]_15 = 0
 R31: - x[1]_14 + x[1]_15 - u[0]_14 = 0
 b_assign: b_1_2_1_t_2 = 1
 b_assign: b_1_2_1_t_0 = 1
 b_assign: b_1_2_1_t_3 = 1
 b_assign: b_1_1_1_t_6 = 1
 b_assign: b_1_1_1_t_1 = 0
 b_assign: b_1_1_1_t_5 = 1
 b_assign: b_1_1_1_t_2 = 0
 b_assign: b_1_1_1_t_10 = 0
 b_assign: b_1_1_1_t_11 = 0
 b_assign: b_1_2_1_t_4 = 0
 b_assign: b_1_2_1_t_7 = 0
 b_assign: b_1_1_1_t_14 = 1
 b_assign: b_1_2_1_t_9 = 1
 b_assign: b_1_2_1_t_12 = 0
 b_assign: b_1_2_1_t_8 = 0
 b_assign: b_1_1_1_t_13 = 1
 b_assign: b_1_2_1_t_11 = 0
 b_assign: b_1_2_1_t_13 = 0
 b_assign: b_1_1_1_t_4 = 0
 b_assign: b_1_1_1_t_12 = 1
 b_assign: b_1_2_1_t_5 = 0
 b_assign: b_1_2_1_t_1 = 1
 b_assign: b_1_1_1_t_3 = 0
 b_assign: b_1_1_1_t_0 = 0
 b_assign: b_1_2_1_t_15 = 0
 b_assign: b_1_1_1_t_7 = 1
 b_assign: b_1_2_1_t_10 = 1
 b_assign: b_1_2_1_t_14 = 0
 b_assign: b_1_2_1_t_6 = 0
 b_assign: b_1_1_1_t_9 = 0
 b_assign: b_1_1_1_t_8 = 0
 b_assign: b_1_1_1_t_15 = 0
 GC0: b_1_1_1_t_0 = 1 -> - x[0]_0 <= -3
 GC1: b_1_1_1_t_0 = 0 -> - x[0]_0 >= -2.9999
 GC2: b_1_1_1_t_1 = 1 -> - x[0]_1 <= -3
 GC3: b_1_1_1_t_1 = 0 -> - x[0]_1 >= -2.9999
 GC4: b_1_1_1_t_2 = 1 -> - x[0]_2 <= -3
 GC5: b_1_1_1_t_2 = 0 -> - x[0]_2 >= -2.9999
 GC6: b_1_1_1_t_3 = 1 -> - x[0]_3 <= -3
 GC7: b_1_1_1_t_3 = 0 -> - x[0]_3 >= -2.9999
 GC8: b_1_1_1_t_4 = 1 -> - x[0]_4 <= -3
 GC9: b_1_1_1_t_4 = 0 -> - x[0]_4 >= -2.9999
 GC10: b_1_1_1_t_5 = 1 -> - x[0]_5 <= -3
 GC11: b_1_1_1_t_5 = 0 -> - x[0]_5 >= -2.9999
 GC12: b_1_1_1_t_6 = 1 -> - x[0]_6 <= -3
 GC13: b_1_1_1_t_6 = 0 -> - x[0]_6 >= -2.9999
 GC14: b_1_1_1_t_7 = 1 -> - x[0]_7 <= -3
 GC15: b_1_1_1_t_7 = 0 -> - x[0]_7 >= -2.9999
 GC16: b_1_1_1_t_8 = 1 -> - x[0]_8 <= -3
 GC17: b_1_1_1_t_8 = 0 -> - x[0]_8 >= -2.9999
 GC18: b_1_1_1_t_9 = 1 -> - x[0]_9 <= -3
 GC19: b_1_1_1_t_9 = 0 -> - x[0]_9 >= -2.9999
 GC20: b_1_1_1_t_10 = 1 -> - x[0]_10 <= -3
 GC21: b_1_1_1_t_10 = 0 -> - x[0]_10 >= -2.9999
 GC22: b_1_1_1_t_11 = 1 -> - x[0]_11 <= -3
 GC23: b_1_1_1_t_11 = 0 -> - x[0]_11 >= -2.9999
 GC24: b_1_1_1_t_12 = 1 -> - x[0]_12 <= -3
 GC25: b_1_1_1_t_12 = 0 -> - x[0]_12 >= -2.9999
 GC26: b_1_1_1_t_13 = 1 -> - x[0]_13 <= -3
 GC27: b_1_1_1_t_13 = 0 -> - x[0]_13 >= -2.9999
 GC28: b_1_1_1_t_14 = 1 -> - x[0]_14 <= -3
 GC29: b_1_1_1_t_14 = 0 -> - x[0]_14 >= -2.9999
 GC30: b_1_1_1_t_15 = 1 -> - x[0]_15 <= -3
 GC31: b_1_1_1_t_15 = 0 -> - x[0]_15 >= -2.9999
 GC32: b_1_2_1_t_0 = 1 -> x[0]_0 <= -0
 GC33: b_1_2_1_t_0 = 0 -> x[0]_0 >= 0.0001
 GC34: b_1_2_1_t_1 = 1 -> x[0]_1 <= -0
 GC35: b_1_2_1_t_1 = 0 -> x[0]_1 >= 0.0001
 GC36: b_1_2_1_t_2 = 1 -> x[0]_2 <= -0
 GC37: b_1_2_1_t_2 = 0 -> x[0]_2 >= 0.0001
 GC38: b_1_2_1_t_3 = 1 -> x[0]_3 <= -0
 GC39: b_1_2_1_t_3 = 0 -> x[0]_3 >= 0.0001
 GC40: b_1_2_1_t_4 = 1 -> x[0]_4 <= -0
 GC41: b_1_2_1_t_4 = 0 -> x[0]_4 >= 0.0001
 GC42: b_1_2_1_t_5 = 1 -> x[0]_5 <= -0
 GC43: b_1_2_1_t_5 = 0 -> x[0]_5 >= 0.0001
 GC44: b_1_2_1_t_6 = 1 -> x[0]_6 <= -0
 GC45: b_1_2_1_t_6 = 0 -> x[0]_6 >= 0.0001
 GC46: b_1_2_1_t_7 = 1 -> x[0]_7 <= -0
 GC47: b_1_2_1_t_7 = 0 -> x[0]_7 >= 0.0001
 GC48: b_1_2_1_t_8 = 1 -> x[0]_8 <= -0
 GC49: b_1_2_1_t_8 = 0 -> x[0]_8 >= 0.0001
 GC50: b_1_2_1_t_9 = 1 -> x[0]_9 <= -0
 GC51: b_1_2_1_t_9 = 0 -> x[0]_9 >= 0.0001
 GC52: b_1_2_1_t_10 = 1 -> x[0]_10 <= -0
 GC53: b_1_2_1_t_10 = 0 -> x[0]_10 >= 0.0001
 GC54: b_1_2_1_t_11 = 1 -> x[0]_11 <= -0
 GC55: b_1_2_1_t_11 = 0 -> x[0]_11 >= 0.0001
 GC56: b_1_2_1_t_12 = 1 -> x[0]_12 <= -0
 GC57: b_1_2_1_t_12 = 0 -> x[0]_12 >= 0.0001
 GC58: b_1_2_1_t_13 = 1 -> x[0]_13 <= -0
 GC59: b_1_2_1_t_13 = 0 -> x[0]_13 >= 0.0001
 GC60: b_1_2_1_t_14 = 1 -> x[0]_14 <= -0
 GC61: b_1_2_1_t_14 = 0 -> x[0]_14 >= 0.0001
 GC62: b_1_2_1_t_15 = 1 -> x[0]_15 <= -0
 GC63: b_1_2_1_t_15 = 0 -> x[0]_15 >= 0.0001
Bounds
 -100 <= x[0]_0 <= 2000
 -5 <= x[1]_0 <= 10
 -100 <= x[0]_1 <= 2000
 -5 <= x[1]_1 <= 10
 -100 <= x[0]_2 <= 2000
 -5 <= x[1]_2 <= 10
 -100 <= x[0]_3 <= 2000
 -5 <= x[1]_3 <= 10
 -100 <= x[0]_4 <= 2000
 -5 <= x[1]_4 <= 10
 -100 <= x[0]_5 <= 2000
 -5 <= x[1]_5 <= 10
 -100 <= x[0]_6 <= 2000
 -5 <= x[1]_6 <= 10
 -100 <= x[0]_7 <= 2000
 -5 <= x[1]_7 <= 10
 -100 <= x[0]_8 <= 2000
 -5 <= x[1]_8 <= 10
 -100 <= x[0]_9 <= 2000
 -5 <= x[1]_9 <= 10
 -100 <= x[0]_10 <= 2000
 -5 <= x[1]_10 <= 10
 -100 <= x[0]_11 <= 2000
 -5 <= x[1]_11 <= 10
 -100 <= x[0]_12 <= 2000
 -5 <= x[1]_12 <= 10
 -100 <= x[0]_13 <= 2000
 -5 <= x[1]_13 <= 10
 -100 <= x[0]_14 <= 2000
 -5 <= x[1]_14 <= 10
 -100 <= x[0]_15 <= 2000
 -5 <= x[1]_15 <= 10
 -1 <= u[0]_0 <= 1
 -1 <= u[0]_1 <= 1
 -1 <= u[0]_2 <= 1
 -1 <= u[0]_3 <= 1
 -1 <= u[0]_4 <= 1
 -1 <= u[0]_5 <= 1
 -1 <= u[0]_6 <= 1
 -1 <= u[0]_7 <= 1
 -1 <= u[0]_8 <= 1
 -1 <= u[0]_9 <= 1
 -1 <= u[0]_10 <= 1
 -1 <= u[0]_11 <= 1
 -1 <= u[0]_12 <= 1
 -1 <= u[0]_13 <= 1
 -1 <= u[0]_14 <= 1
Binaries
 b_1_1_1_t_0 b_1_1_1_t_1 b_1_1_1_t_2 b_1_1_1_t_3 b_1_1_1_t_4 b_1_1_1_t_5
 b_1_1_1_t_6 b_1_1_1_t_7 b_1_1_1_t_8 b_1_1_1_t_9 b_1_1_1_t_10 b_1_1_1_t_11
 b_1_1_1_t_12 b_1_1_1_t_13 b_1_1_1_t_14 b_1_1_1_t_15 b_1_2_1_t_0
 b_1_2_1_t_1 b_1_2_1_t_2 b_1_2_1_t_3 b_1_2_1_t_4 b_1_2_1_t_5 b_1_2_1_t_6
 b_1_2_1_t_7 b_1_2_1_t_8 b_1_2_1_t_9 b_1_2_1_t_10 b_1_2_1_t_11 b_1_2_1_t_12
 b_1_2_1_t_13 b_1_2_1_t_14 b_1_2_1_t_15
End
